SECTION Graph 
Nodes 538
Edges 1088
E 1 489 12
E 1 492 7
E 2 3 14
E 2 490 12
E 3 4 1
E 3 497 12
E 4 498 12
E 5 6 1
E 5 159 21
E 6 7 14
E 6 160 21
E 7 8 1
E 7 161 21
E 8 135 7
E 8 162 21
E 9 10 1
E 9 480 7
E 9 481 6
E 10 11 14
E 10 483 6
E 11 12 1
E 11 493 6
E 12 494 6
E 13 14 1
E 13 435 15
E 13 445 7
E 13 458 1
E 14 15 14
E 14 437 15
E 14 461 1
E 15 16 1
E 15 471 3
E 15 473 1
E 16 472 3
E 16 474 1
E 16 481 7
E 17 18 1
E 17 21 23
E 17 44 7
E 18 19 14
E 18 22 23
E 19 20 1
E 19 23 23
E 20 24 23
E 21 22 1
E 21 48 7
E 21 433 18
E 22 23 14
E 22 434 18
E 23 24 1
E 23 455 18
E 24 456 18
E 25 26 1
E 25 405 7
E 25 417 1
E 25 429 2
E 26 27 14
E 26 420 1
E 26 430 2
E 27 28 1
E 27 443 1
E 27 451 2
E 28 445 1
E 28 452 2
E 28 458 7
E 29 30 1
E 29 346 17
E 29 358 7
E 29 384 2
E 30 31 14
E 30 349 17
E 30 387 2
E 31 32 1
E 31 375 17
E 31 411 2
E 32 379 17
E 32 415 2
E 33 34 1
E 33 64 15
E 33 340 31
E 34 35 14
E 34 343 31
E 35 36 1
E 35 366 31
E 36 370 31
E 37 38 1
E 37 476 7
E 37 486 1
E 38 39 14
E 38 488 1
E 39 40 1
E 39 495 1
E 40 496 1
E 41 42 1
E 41 431 19
E 41 448 7
E 41 486 24
E 42 43 14
E 42 432 19
E 42 488 24
E 43 44 1
E 43 453 19
E 43 495 24
E 44 454 19
E 44 496 24
E 45 46 1
E 45 385 18
E 45 404 7
E 45 431 4
E 46 47 14
E 46 388 18
E 46 432 4
E 47 48 1
E 47 412 18
E 47 453 4
E 48 416 18
E 48 454 4
E 49 50 1
E 49 357 7
E 49 372 2
E 49 383 2
E 50 51 14
E 50 378 2
E 50 386 2
E 51 52 1
E 51 401 2
E 51 409 2
E 52 405 2
E 52 413 2
E 52 429 7
E 53 54 1
E 53 322 7
E 53 334 2
E 53 339 2
E 54 55 14
E 54 336 2
E 54 342 2
E 55 56 1
E 55 356 2
E 55 365 2
E 56 358 2
E 56 369 2
E 56 384 7
E 57 58 1
E 57 279 7
E 57 290 2
E 57 300 2
E 58 59 14
E 58 295 2
E 58 304 2
E 59 60 1
E 59 318 2
E 59 328 2
E 60 323 2
E 60 331 2
E 60 340 7
E 61 62 1
E 61 88 7
E 61 290 21
E 62 63 14
E 62 295 21
E 63 64 1
E 63 318 21
E 64 323 21
E 65 66 1
E 65 447 8
E 65 449 7
E 65 463 1
E 66 67 14
E 66 450 8
E 66 464 1
E 67 68 1
E 67 444 24
E 67 475 1
E 68 448 24
E 68 476 1
E 68 486 7
E 69 70 1
E 69 361 7
E 69 371 4
E 69 394 5
E 70 71 14
E 70 377 4
E 70 396 5
E 71 72 1
E 71 400 4
E 71 425 5
E 72 404 4
E 72 428 5
E 72 431 7
E 73 74 1
E 73 321 7
E 73 333 2
E 73 337 1
E 74 75 14
E 74 335 2
E 74 338 1
E 75 76 1
E 75 355 2
E 75 362 1
E 76 357 2
E 76 364 1
E 76 383 7
E 77 78 1
E 77 278 7
E 77 289 2
E 77 297 1
E 78 79 14
E 78 294 2
E 78 299 1
E 79 80 1
E 79 317 2
E 79 325 1
E 80 322 2
E 80 327 1
E 80 339 7
E 81 82 1
E 81 228 8
E 81 232 7
E 81 250 2
E 82 83 14
E 82 233 8
E 82 253 2
E 83 84 1
E 83 260 8
E 83 276 2
E 84 261 8
E 84 279 2
E 84 290 7
E 85 86 1
E 85 204 9
E 85 228 13
E 86 87 14
E 86 233 13
E 87 88 1
E 87 260 13
E 88 261 13
E 89 90 1
E 89 408 7
E 89 423 1
E 90 91 14
E 90 427 1
E 91 92 1
E 91 446 1
E 92 449 1
E 92 463 7
E 93 94 1
E 93 348 14
E 93 354 7
E 93 403 16
E 94 350 14
E 94 389 6
E 94 407 16
E 95 96 1
E 95 376 14
E 95 393 6
E 95 436 16
E 96 381 14
E 96 419 7
E 96 439 16
E 97 98 1
E 97 188 11
E 97 192 7
E 97 207 8
E 98 99 14
E 98 190 11
E 98 211 8
E 99 100 1
E 99 202 11
E 99 227 8
E 100 204 11
E 100 228 7
E 100 232 8
E 101 102 2
E 101 350 6
E 101 351 5
E 101 389 14
E 102 352 5
E 102 376 6
E 102 393 14
E 103 104 1
E 103 326 16
E 103 347 7
E 103 380 9
E 104 105 14
E 104 329 16
E 104 382 9
E 105 106 1
E 105 353 16
E 105 406 9
E 106 354 16
E 106 403 7
E 106 408 9
E 107 108 1
E 107 234 7
E 107 245 1
E 107 287 22
E 108 109 14
E 108 247 1
E 108 291 22
E 109 110 1
E 109 271 1
E 109 315 22
E 110 273 1
E 110 292 7
E 110 319 22
E 111 112 1
E 111 200 7
E 111 213 1
E 111 242 18
E 112 113 14
E 112 215 1
E 112 244 18
E 113 114 1
E 113 235 1
E 113 269 18
E 114 237 1
E 114 251 7
E 114 270 18
E 115 116 1
E 115 179 7
E 115 187 1
E 115 206 18
E 116 117 14
E 116 189 1
E 116 210 18
E 117 118 1
E 117 201 1
E 117 226 18
E 118 203 1
E 118 218 7
E 118 231 18
E 119 120 1
E 119 146 7
E 119 208 22
E 119 311 35
E 120 121 14
E 120 212 22
E 120 312 35
E 121 122 1
E 121 229 22
E 121 344 35
E 122 234 22
E 122 287 7
E 122 347 35
E 123 124 1
E 123 183 18
E 123 194 7
E 123 205 2
E 124 125 14
E 124 186 18
E 124 209 2
E 125 126 1
E 125 197 18
E 125 225 2
E 126 200 18
E 126 230 2
E 126 242 7
E 127 128 1
E 127 166 18
E 127 173 7
E 127 181 2
E 128 129 14
E 128 168 18
E 128 184 2
E 129 130 1
E 129 176 18
E 129 195 2
E 130 179 18
E 130 198 2
E 130 206 7
E 131 132 1
E 131 135 21
E 131 162 7
E 131 165 2
E 132 133 14
E 132 136 21
E 132 167 2
E 133 134 1
E 133 169 10
E 133 175 2
E 134 170 10
E 134 177 2
E 134 182 7
E 135 136 1
E 136 137 14
E 137 138 1
E 137 169 11
E 138 170 11
E 138 188 30
E 139 140 1
E 139 266 10
E 140 141 14
E 140 268 10
E 141 142 1
E 141 298 10
E 142 301 10
E 142 380 31
E 143 144 1
E 143 147 23
E 143 266 35
E 144 145 14
E 144 148 23
E 144 268 35
E 145 146 1
E 145 149 23
E 145 298 35
E 146 150 23
E 146 301 35
E 147 148 1
E 147 178 2
E 148 149 14
E 148 180 2
E 149 150 1
E 149 193 2
E 150 194 2
E 150 205 7
E 151 152 1
E 151 163 2
E 151 178 19
E 152 153 14
E 152 164 2
E 152 180 19
E 153 154 1
E 153 171 2
E 153 193 19
E 154 173 2
E 154 181 7
E 154 194 19
E 155 156 1
E 155 159 2
E 155 163 19
E 156 157 14
E 156 160 2
E 156 164 19
E 157 158 1
E 157 161 2
E 157 171 19
E 158 162 2
E 158 165 7
E 158 173 19
E 159 160 1
E 160 161 14
E 161 162 1
E 163 164 1
E 164 171 14
E 165 166 1
E 165 167 1
E 166 168 1
E 167 168 1
E 167 175 14
E 168 176 14
E 169 170 1
E 170 172 7
E 171 173 1
E 172 174 1
E 172 182 10
E 174 185 10
E 174 191 14
E 175 176 1
E 175 177 1
E 176 179 1
E 177 179 1
E 177 187 7
E 178 180 1
E 180 193 14
E 181 183 1
E 181 184 1
E 182 185 1
E 182 187 2
E 183 186 1
E 184 186 1
E 184 195 14
E 185 189 2
E 185 196 14
E 186 197 14
E 187 189 1
E 188 190 1
E 189 201 14
E 190 202 14
E 191 192 1
E 191 196 10
E 192 199 10
E 193 194 1
E 195 197 1
E 195 198 1
E 196 199 1
E 196 201 2
E 197 200 1
E 198 200 1
E 198 213 7
E 199 203 2
E 199 214 7
E 201 203 1
E 202 204 1
E 203 217 7
E 205 208 1
E 205 209 1
E 206 210 1
E 206 213 2
E 207 211 1
E 207 214 2
E 208 212 1
E 209 212 1
E 209 225 14
E 210 215 2
E 210 226 14
E 211 216 2
E 211 227 14
E 212 229 14
E 213 215 1
E 214 216 1
E 214 217 2
E 215 235 14
E 216 219 2
E 216 236 14
E 217 218 1
E 217 219 1
E 218 220 1
E 218 246 18
E 219 220 1
E 219 221 6
E 220 222 6
E 220 248 18
E 221 222 1
E 221 223 2
E 222 224 2
E 222 259 18
E 223 224 1
E 223 239 6
E 224 240 6
E 224 263 18
E 225 229 1
E 225 230 1
E 226 231 1
E 226 235 2
E 227 232 1
E 227 236 2
E 228 233 1
E 229 234 1
E 230 234 1
E 230 245 7
E 231 237 2
E 231 246 7
E 232 238 2
E 233 260 14
E 235 237 1
E 236 238 1
E 236 239 2
E 237 249 7
E 238 241 2
E 238 250 7
E 239 240 1
E 239 241 1
E 240 243 1
E 240 272 18
E 241 243 1
E 241 255 7
E 242 244 1
E 242 245 2
E 243 256 7
E 243 274 18
E 244 247 2
E 244 269 14
E 245 247 1
E 246 248 1
E 246 249 2
E 247 271 14
E 248 252 2
E 248 259 6
E 249 251 1
E 249 252 1
E 250 253 1
E 250 255 2
E 251 254 1
E 251 288 20
E 252 254 1
E 252 262 6
E 253 257 2
E 253 276 14
E 254 264 6
E 254 293 20
E 255 256 1
E 255 257 1
E 256 258 1
E 256 284 16
E 257 258 1
E 257 281 14
E 258 282 14
E 258 286 16
E 259 262 2
E 259 263 2
E 260 261 1
E 262 264 1
E 262 265 2
E 263 265 2
E 263 272 6
E 264 267 2
E 264 303 18
E 265 267 1
E 265 275 6
E 266 268 1
E 267 277 6
E 267 307 18
E 268 298 14
E 269 270 1
E 269 271 2
E 270 273 2
E 270 303 14
E 271 273 1
E 272 274 1
E 272 275 2
E 273 288 7
E 274 278 2
E 274 289 7
E 275 277 1
E 275 278 1
E 276 279 1
E 276 281 2
E 277 280 1
E 277 316 20
E 278 280 1
E 279 283 2
E 280 297 7
E 280 321 20
E 281 282 1
E 281 283 1
E 282 285 1
E 282 313 16
E 283 285 1
E 283 300 7
E 284 286 1
E 284 289 2
E 285 314 16
E 286 294 2
E 286 313 14
E 287 291 1
E 287 302 5
E 288 292 1
E 288 293 1
E 289 294 1
E 290 295 1
E 291 305 5
E 291 315 14
E 292 296 1
E 292 348 27
E 293 296 1
E 293 306 6
E 294 317 14
E 295 318 14
E 296 308 6
E 296 350 27
E 297 299 1
E 297 333 18
E 298 301 1
E 299 325 14
E 299 335 18
E 300 304 1
E 300 334 17
E 301 311 7
E 302 305 1
E 302 326 14
E 303 306 2
E 303 307 2
E 304 328 14
E 304 336 17
E 305 329 14
E 305 330 14
E 306 308 1
E 306 309 2
E 307 309 2
E 307 333 14
E 308 310 2
E 308 351 22
E 309 310 1
E 309 316 6
E 310 320 6
E 310 352 22
E 311 312 1
E 312 344 14
E 313 314 1
E 313 317 2
E 314 322 2
E 314 334 7
E 315 319 1
E 315 330 5
E 316 320 1
E 316 321 1
E 317 322 1
E 318 323 1
E 319 332 5
E 319 351 14
E 320 324 1
E 320 359 22
E 321 324 1
E 324 337 7
E 324 361 22
E 325 327 1
E 325 355 18
E 326 329 1
E 327 341 7
E 327 357 18
E 328 331 1
E 328 356 17
E 329 353 14
E 330 332 1
E 330 353 14
E 331 346 7
E 331 358 17
E 332 348 7
E 332 354 14
E 333 335 1
E 334 336 1
E 335 355 14
E 336 356 14
E 337 338 1
E 337 371 18
E 338 362 14
E 338 377 18
E 339 341 1
E 339 342 1
E 340 343 1
E 340 346 2
E 341 345 1
E 341 360 12
E 342 345 1
E 342 365 14
E 343 349 2
E 343 366 14
E 344 347 1
E 345 363 12
E 345 368 14
E 346 349 1
E 348 350 1
E 349 375 14
E 351 352 2
E 352 359 6
E 353 354 1
E 355 357 1
E 356 358 1
E 359 361 1
E 359 376 5
E 360 363 1
E 360 367 3
E 361 381 5
E 362 364 1
E 362 400 18
E 363 373 3
E 363 397 14
E 364 385 7
E 364 404 18
E 365 368 1
E 365 369 1
E 366 370 1
E 366 375 2
E 367 372 1
E 367 373 1
E 368 374 1
E 368 397 12
E 369 374 1
E 370 379 2
E 371 377 1
E 372 378 1
E 373 378 1
E 373 399 14
E 374 390 7
E 374 398 12
E 375 379 1
E 376 381 1
E 377 400 14
E 378 401 14
E 379 392 7
E 380 382 1
E 381 394 7
E 382 406 14
E 383 385 1
E 383 386 1
E 384 387 1
E 384 390 3
E 385 388 1
E 386 388 1
E 386 409 14
E 387 391 3
E 387 411 14
E 388 412 14
E 389 393 2
E 390 391 1
E 390 410 12
E 391 414 12
E 391 418 14
E 392 395 1
E 392 435 22
E 394 396 1
E 394 419 14
E 395 422 14
E 395 437 22
E 396 424 14
E 396 425 14
E 397 398 1
E 397 399 3
E 398 402 3
E 398 410 7
E 399 401 1
E 399 402 1
E 400 404 1
E 401 405 1
E 402 405 1
E 402 417 7
E 403 407 1
E 403 423 8
E 406 408 1
E 407 427 8
E 407 436 14
E 409 412 1
E 409 413 1
E 410 414 1
E 410 417 3
E 411 415 1
E 411 418 3
E 412 416 1
E 413 416 1
E 414 420 3
E 414 441 14
E 415 421 3
E 416 433 7
E 417 420 1
E 418 421 1
E 418 441 12
E 419 424 1
E 419 447 16
E 420 443 14
E 421 435 7
E 421 442 12
E 422 426 1
E 422 457 22
E 423 427 1
E 424 444 14
E 424 450 16
E 425 428 1
E 425 444 14
E 426 438 7
E 426 459 22
E 427 446 14
E 428 448 14
E 429 430 1
E 429 433 3
E 430 434 3
E 430 451 14
E 431 432 1
E 432 453 14
E 433 434 1
E 434 455 14
E 435 437 1
E 436 439 1
E 436 446 8
E 437 457 14
E 438 440 1
E 438 467 22
E 439 447 7
E 439 449 8
E 440 460 14
E 440 468 22
E 441 442 1
E 441 443 3
E 442 445 3
E 442 471 22
E 443 445 1
E 444 448 1
E 446 449 1
E 447 450 1
E 451 452 1
E 451 455 3
E 452 456 3
E 453 454 1
E 455 456 1
E 456 465 7
E 457 459 1
E 457 471 12
E 458 461 1
E 458 465 5
E 459 467 7
E 459 472 12
E 460 462 1
E 460 482 22
E 461 466 5
E 461 473 14
E 462 469 7
E 462 484 22
E 463 464 1
E 464 475 14
E 465 466 1
E 466 478 14
E 467 468 1
E 467 477 12
E 468 479 12
E 468 482 14
E 469 470 1
E 469 489 22
E 470 485 14
E 470 490 22
E 471 472 1
E 472 477 7
E 473 474 1
E 473 478 5
E 474 480 5
E 475 476 1
E 477 479 1
E 477 481 3
E 478 480 1
E 479 483 3
E 479 491 14
E 481 483 1
E 482 484 1
E 482 491 12
E 483 493 14
E 484 489 7
E 484 492 12
E 485 487 1
E 485 497 22
E 486 488 1
E 487 498 22
E 488 495 14
E 489 490 1
E 490 497 14
E 491 492 1
E 491 493 3
E 492 494 3
E 493 494 1
E 495 496 1
E 497 498 1
E 1 499 100000
E 2 499 100000
E 3 499 100000
E 4 499 100000
E 5 500 100000
E 6 500 100000
E 7 500 100000
E 8 500 100000
E 9 501 100000
E 10 501 100000
E 11 501 100000
E 12 501 100000
E 13 502 100000
E 14 502 100000
E 15 502 100000
E 16 502 100000
E 17 503 100000
E 18 503 100000
E 19 503 100000
E 20 503 100000
E 21 504 100000
E 22 504 100000
E 23 504 100000
E 24 504 100000
E 25 505 100000
E 26 505 100000
E 27 505 100000
E 28 505 100000
E 29 506 100000
E 30 506 100000
E 31 506 100000
E 32 506 100000
E 33 507 100000
E 34 507 100000
E 35 507 100000
E 36 507 100000
E 37 508 100000
E 38 508 100000
E 39 508 100000
E 40 508 100000
E 41 509 100000
E 42 509 100000
E 43 509 100000
E 44 509 100000
E 45 510 100000
E 46 510 100000
E 47 510 100000
E 48 510 100000
E 49 511 100000
E 50 511 100000
E 51 511 100000
E 52 511 100000
E 53 512 100000
E 54 512 100000
E 55 512 100000
E 56 512 100000
E 57 513 100000
E 58 513 100000
E 59 513 100000
E 60 513 100000
E 61 514 100000
E 62 514 100000
E 63 514 100000
E 64 514 100000
E 65 515 100000
E 66 515 100000
E 67 515 100000
E 68 515 100000
E 69 516 100000
E 70 516 100000
E 71 516 100000
E 72 516 100000
E 73 517 100000
E 74 517 100000
E 75 517 100000
E 76 517 100000
E 77 518 100000
E 78 518 100000
E 79 518 100000
E 80 518 100000
E 81 519 100000
E 82 519 100000
E 83 519 100000
E 84 519 100000
E 85 520 100000
E 86 520 100000
E 87 520 100000
E 88 520 100000
E 89 521 100000
E 90 521 100000
E 91 521 100000
E 92 521 100000
E 93 522 100000
E 94 522 100000
E 95 522 100000
E 96 522 100000
E 97 523 100000
E 98 523 100000
E 99 523 100000
E 100 523 100000
E 101 524 100000
E 102 524 100000
E 103 525 100000
E 104 525 100000
E 105 525 100000
E 106 525 100000
E 107 526 100000
E 108 526 100000
E 109 526 100000
E 110 526 100000
E 111 527 100000
E 112 527 100000
E 113 527 100000
E 114 527 100000
E 115 528 100000
E 116 528 100000
E 117 528 100000
E 118 528 100000
E 119 529 100000
E 120 529 100000
E 121 529 100000
E 122 529 100000
E 123 530 100000
E 124 530 100000
E 125 530 100000
E 126 530 100000
E 127 531 100000
E 128 531 100000
E 129 531 100000
E 130 531 100000
E 131 532 100000
E 132 532 100000
E 133 532 100000
E 134 532 100000
E 135 533 100000
E 136 533 100000
E 137 533 100000
E 138 533 100000
E 139 534 100000
E 140 534 100000
E 141 534 100000
E 142 534 100000
E 143 535 100000
E 144 535 100000
E 145 535 100000
E 146 535 100000
E 147 536 100000
E 148 536 100000
E 149 536 100000
E 150 536 100000
E 151 537 100000
E 152 537 100000
E 153 537 100000
E 154 537 100000
E 155 538 100000
E 156 538 100000
E 157 538 100000
E 158 538 100000
END 

SECTION Terminals 
Terminals 40
TP 499 519
TP 500 520
TP 501 521
TP 502 522
TP 503 523
TP 504 524
TP 505 525
TP 506 526
TP 507 527
TP 508 528
TP 509 529
TP 510 530
TP 511 531
TP 512 532
TP 513 533
TP 514 534
TP 515 535
TP 516 536
TP 517 537
TP 518 538
END 
